-19595.0 -19738.0 
-19360.0 -20147.0 
-19590.0 -19870.0 
-19589.0 -20050.0 
-19531.0 -20106.0 
-19453.0 -20142.0 
-19566.0 -20053.0 
-19469.0 -20107.0 
-19460.0 -20139.0 
-19469.0 -20107.0 
-19469.0 -20107.0 
-19469.0 -20107.0 
-19469.0 -20107.0 
-19469.0 -20107.0 
-19469.0 -20107.0 
-19469.0 -20107.0 
-19469.0 -20107.0 
-19469.0 -20107.0 
-19469.0 -20107.0 
-19469.0 -20107.0 
-19469.0 -20107.0 
-19469.0 -20107.0 
-19469.0 -20107.0 
-19469.0 -20107.0 
-19469.0 -20107.0 
-19469.0 -20107.0 
-19469.0 -20107.0 
-19469.0 -20107.0 
-19469.0 -20107.0 
-19469.0 -20107.0 
-19469.0 -20107.0 
-19469.0 -20107.0 
-19469.0 -20107.0 
-19469.0 -20107.0 
-19469.0 -20107.0 
-19469.0 -20107.0 
-19469.0 -20107.0 
-19469.0 -20107.0 
-19469.0 -20107.0 
-19469.0 -20107.0 
-19469.0 -20107.0 
-19469.0 -20107.0 
-19469.0 -20107.0 
-19469.0 -20107.0 
-19469.0 -20107.0 
-19469.0 -20107.0 
-19469.0 -20107.0 
-19469.0 -20107.0 
-19469.0 -20107.0 
-19469.0 -20107.0 
-19469.0 -20107.0 
-19469.0 -20107.0 
-19469.0 -20107.0 
-19469.0 -20107.0 
-19469.0 -20107.0 
-19469.0 -20107.0 
-19469.0 -20107.0 
-19469.0 -20107.0 
-19469.0 -20107.0 
-19469.0 -20107.0 
-19469.0 -20107.0 
-19469.0 -20107.0 
-19469.0 -20107.0 
-19469.0 -20107.0 
-19469.0 -20107.0 
-19469.0 -20107.0 
-19469.0 -20107.0 
-19469.0 -20107.0 
-19469.0 -20107.0 
-19469.0 -20107.0 
-19469.0 -20107.0 
-19469.0 -20107.0 
-19469.0 -20107.0 
-19469.0 -20107.0 
-19469.0 -20107.0 
-19469.0 -20107.0 
-19469.0 -20107.0 
-19469.0 -20107.0 
-19469.0 -20107.0 
-19469.0 -20107.0 
-19469.0 -20107.0 
-19469.0 -20107.0 
-19469.0 -20107.0 
-19469.0 -20107.0 
-19469.0 -20107.0 
-19469.0 -20107.0 
-19469.0 -20107.0 
-19469.0 -20107.0 
-19469.0 -20107.0 
-19469.0 -20107.0 
-19469.0 -20107.0 
-19469.0 -20107.0 
-19469.0 -20107.0 
-19469.0 -20107.0 
-19469.0 -20107.0 
-19469.0 -20107.0 
-19469.0 -20107.0 
-19469.0 -20107.0 
-19469.0 -20107.0 
-19469.0 -20107.0 
